71
100
80	3
79	5
78	5
77	7
76	8
75	12
74	6
73	7
72	9
71	7
70	7
69	6
68	3
67	3
66	8
65	7
64	8
63	7
62	4
61	4
60	8
59	8
58	9
57	10
56	2
55	2
54	6
53	10
52	6
51	4
50	12
49	12
48	8
47	4
46	7
45	9
44	6
43	14
42	3
41	5
40	9
39	9
38	10
37	5
36	5
35	9
34	10
33	7
32	4
31	4
30	7
29	7
28	4
27	6
26	8
25	3
24	5
23	8
22	8
21	5
20	6
19	9
18	4
17	10
16	9
15	11
14	13
13	10
12	10
11	5
10	9
